(set-info :smt-lib-version 2.6)
(set-logic QF_LIA)
(set-info :source |
show equivalence of the following terms:
(((4 * v2 + 8 * v3) + (16 * v4 + 32 * v5)) + ((64 * v6 + 128 * v7) + (256 * v8 + (1 * v0 + 2 * v1))))

v0 + 2 * (v1 + 2 * (v2 + 2 * (v3 + 2 * (v4 + 2 * (v5 + 2 * (v6 + 2 * (v7 + 2 * (v8))))))))

in arithmetic modulo 2exp12
STATUS: unsat

generated by: Alberto Griggio <alberto.griggio@disi.unitn.it>
|)
(set-info :category "crafted")
(set-info :status unsat)
(declare-fun v0 () Int)
(declare-fun v1 () Int)
(declare-fun v2 () Int)
(declare-fun v3 () Int)
(declare-fun v4 () Int)
(declare-fun v5 () Int)
(declare-fun v6 () Int)
(declare-fun v7 () Int)
(declare-fun v8 () Int)
(declare-fun o_0 () Int)
(declare-fun s_2 () Int)
(declare-fun o_1 () Int)
(declare-fun s_3 () Int)
(declare-fun s_4 () Int)
(declare-fun o_2 () Int)
(declare-fun s_5 () Int)
(declare-fun s_6 () Int)
(declare-fun o_3 () Int)
(declare-fun s_7 () Int)
(declare-fun o_4 () Int)
(declare-fun o_5 () Int)
(declare-fun o_6 () Int)
(declare-fun o_7 () Int)
(declare-fun o_8 () Int)
(declare-fun o_9 () Int)
(declare-fun s_10 () Int)
(declare-fun o_10 () Int)
(declare-fun s_11 () Int)
(declare-fun o_11 () Int)
(declare-fun s_12 () Int)
(declare-fun o_12 () Int)
(declare-fun s_13 () Int)
(declare-fun o_13 () Int)
(declare-fun s_14 () Int)
(declare-fun o_14 () Int)
(declare-fun s_15 () Int)
(declare-fun o_15 () Int)
(assert (let ((?v_0 (* v8 2))) (let ((?v_2 (< ?v_0 4096)) (?v_3 (< ?v_0 8192))) (let ((?v_47 (+ (ite ?v_2 ?v_0 (ite ?v_3 (- ?v_0 4096) (- ?v_0 8192))) v7))) (let ((?v_48 (- ?v_47 (* o_8 4096))) (?v_57 (* v8 256))) (let ((?v_58 (- ?v_57 (* s_7 4096))) (?v_7 (* v1 2))) (let ((?v_75 (+ (ite (< ?v_7 4096) ?v_7 (ite (< ?v_7 8192) (- ?v_7 4096) (- ?v_7 8192))) v0))) (let ((?v_76 (- ?v_75 (* o_0 4096)))) (let ((?v_55 (+ ?v_58 ?v_76))) (let ((?v_56 (- ?v_55 (* o_4 4096))) (?v_61 (* v7 128))) (let ((?v_62 (- ?v_61 (* s_6 4096))) (?v_63 (* v6 64))) (let ((?v_64 (- ?v_63 (* s_5 4096)))) (let ((?v_59 (+ ?v_62 ?v_64))) (let ((?v_60 (- ?v_59 (* o_3 4096)))) (let ((?v_51 (+ ?v_56 ?v_60))) (let ((?v_52 (- ?v_51 (* o_6 4096))) (?v_67 (* v5 32))) (let ((?v_68 (- ?v_67 (* s_4 4096))) (?v_69 (* v4 16))) (let ((?v_70 (- ?v_69 (* s_3 4096)))) (let ((?v_65 (+ ?v_68 ?v_70))) (let ((?v_66 (- ?v_65 (* o_2 4096))) (?v_73 (* v3 8))) (let ((?v_74 (- ?v_73 (* s_2 4096))) (?v_8 (* v2 4))) (let ((?v_71 (+ ?v_74 (ite (< ?v_8 4096) ?v_8 (ite (< ?v_8 8192) (- ?v_8 4096) (ite (< ?v_8 12288) (- ?v_8 8192) (ite (< ?v_8 16384) (- ?v_8 12288) (- ?v_8 16384)))))))) (let ((?v_72 (- ?v_71 (* o_1 4096)))) (let ((?v_53 (+ ?v_66 ?v_72))) (let ((?v_54 (- ?v_53 (* o_5 4096)))) (let ((?v_49 (+ ?v_52 ?v_54))) (let ((?v_50 (- ?v_49 (* o_7 4096))) (?v_1 (* 4 v8))) (let ((?v_5 (- (+ (ite ?v_2 ?v_1 (ite ?v_3 (- ?v_1 8192) (- ?v_1 16384))) (* 2 v7)) (* 8192 o_8)))) (let ((?v_13 (< ?v_5 4096)) (?v_15 (< ?v_5 8192))) (let ((?v_45 (+ (ite ?v_13 ?v_5 (ite ?v_15 (- ?v_5 4096) (- ?v_5 8192))) v6))) (let ((?v_46 (- ?v_45 (* o_9 4096))) (?v_39 (* 8 v8))) (let ((?v_40 (- (+ (ite ?v_2 ?v_39 (ite ?v_3 (- ?v_39 16384) (- ?v_39 32768))) (* 4 v7)) (* 16384 o_8)))) (let ((?v_43 (- (+ (ite ?v_13 ?v_40 (ite ?v_15 (- ?v_40 8192) (- ?v_40 16384))) (* 2 v6)) (* 8192 o_9)))) (let ((?v_44 (- ?v_43 (* s_10 4096)))) (let ((?v_41 (+ ?v_44 v5))) (let ((?v_42 (- ?v_41 (* o_10 4096))) (?v_33 (* 16 v8))) (let ((?v_34 (- (+ (ite ?v_2 ?v_33 (ite ?v_3 (- ?v_33 32768) (- ?v_33 65536))) (* 8 v7)) (* 32768 o_8)))) (let ((?v_37 (- (+ (- (- (+ (ite ?v_13 ?v_34 (ite ?v_15 (- ?v_34 16384) (- ?v_34 32768))) (* 4 v6)) (* 16384 o_9)) (* 8192 s_10)) (* 2 v5)) (* 8192 o_10)))) (let ((?v_38 (- ?v_37 (* s_11 4096)))) (let ((?v_35 (+ ?v_38 v4))) (let ((?v_36 (- ?v_35 (* o_11 4096))) (?v_27 (* 32 v8))) (let ((?v_28 (- (+ (ite ?v_2 ?v_27 (ite ?v_3 (- ?v_27 65536) (- ?v_27 131072))) (* 16 v7)) (* 65536 o_8)))) (let ((?v_31 (- (+ (- (- (+ (- (- (+ (ite ?v_13 ?v_28 (ite ?v_15 (- ?v_28 32768) (- ?v_28 65536))) (* 8 v6)) (* 32768 o_9)) (* 16384 s_10)) (* 4 v5)) (* 16384 o_10)) (* 8192 s_11)) (* 2 v4)) (* 8192 o_11)))) (let ((?v_32 (- ?v_31 (* s_12 4096)))) (let ((?v_29 (+ ?v_32 v3))) (let ((?v_30 (- ?v_29 (* o_12 4096))) (?v_21 (* 64 v8))) (let ((?v_22 (- (+ (ite ?v_2 ?v_21 (ite ?v_3 (- ?v_21 131072) (- ?v_21 262144))) (* 32 v7)) (* 131072 o_8)))) (let ((?v_25 (- (+ (- (- (+ (- (- (+ (- (- (+ (ite ?v_13 ?v_22 (ite ?v_15 (- ?v_22 65536) (- ?v_22 131072))) (* 16 v6)) (* 65536 o_9)) (* 32768 s_10)) (* 8 v5)) (* 32768 o_10)) (* 16384 s_11)) (* 4 v4)) (* 16384 o_11)) (* 8192 s_12)) (* 2 v3)) (* 8192 o_12)))) (let ((?v_26 (- ?v_25 (* s_13 4096)))) (let ((?v_23 (+ ?v_26 v2))) (let ((?v_24 (- ?v_23 (* o_13 4096))) (?v_14 (* 128 v8))) (let ((?v_16 (- (+ (ite ?v_2 ?v_14 (ite ?v_3 (- ?v_14 262144) (- ?v_14 524288))) (* 64 v7)) (* 262144 o_8)))) (let ((?v_19 (- (+ (- (- (+ (- (- (+ (- (- (+ (- (- (+ (ite ?v_13 ?v_16 (ite ?v_15 (- ?v_16 131072) (- ?v_16 262144))) (* 32 v6)) (* 131072 o_9)) (* 65536 s_10)) (* 16 v5)) (* 65536 o_10)) (* 32768 s_11)) (* 8 v4)) (* 32768 o_11)) (* 16384 s_12)) (* 4 v3)) (* 16384 o_12)) (* 8192 s_13)) (* 2 v2)) (* 8192 o_13)))) (let ((?v_20 (- ?v_19 (* s_14 4096)))) (let ((?v_17 (+ ?v_20 v1))) (let ((?v_18 (- ?v_17 (* o_14 4096))) (?v_4 (* 256 v8))) (let ((?v_6 (- (+ (ite ?v_2 ?v_4 (ite ?v_3 (- ?v_4 524288) (- ?v_4 1048576))) (* 128 v7)) (* 524288 o_8)))) (let ((?v_11 (- (+ (- (- (+ (- (- (+ (- (- (+ (- (- (+ (- (- (+ (ite ?v_13 ?v_6 (ite ?v_15 (- ?v_6 262144) (- ?v_6 524288))) (* 64 v6)) (* 262144 o_9)) (* 131072 s_10)) (* 32 v5)) (* 131072 o_10)) (* 65536 s_11)) (* 16 v4)) (* 65536 o_11)) (* 32768 s_12)) (* 8 v3)) (* 32768 o_12)) (* 16384 s_13)) (* 4 v2)) (* 16384 o_13)) (* 8192 s_14)) (* 2 v1)) (* 8192 o_14)))) (let ((?v_12 (- ?v_11 (* s_15 4096)))) (let ((?v_9 (+ ?v_12 v0))) (let ((?v_10 (- ?v_9 (* o_15 4096)))) (and (not (= ?v_10 ?v_50)) (and (= (> ?v_9 4096) (= o_15 1)) (and (and (< ?v_10 4096) (<= 0 ?v_10)) (and (and (<= o_15 1) (<= 0 o_15)) (and (= (> ?v_11 4096) (>= s_15 1)) (and (and (< ?v_12 4096) (<= 0 ?v_12)) (and (and (< s_15 2) (<= 0 s_15)) (and (= (> ?v_17 4096) (= o_14 1)) (and (and (< ?v_18 4096) (<= 0 ?v_18)) (and (and (<= o_14 1) (<= 0 o_14)) (and (= (> ?v_19 4096) (>= s_14 1)) (and (and (< ?v_20 4096) (<= 0 ?v_20)) (and (and (< s_14 2) (<= 0 s_14)) (and (= (> ?v_23 4096) (= o_13 1)) (and (and (< ?v_24 4096) (<= 0 ?v_24)) (and (and (<= o_13 1) (<= 0 o_13)) (and (= (> ?v_25 4096) (>= s_13 1)) (and (and (< ?v_26 4096) (<= 0 ?v_26)) (and (and (< s_13 2) (<= 0 s_13)) (and (= (> ?v_29 4096) (= o_12 1)) (and (and (< ?v_30 4096) (<= 0 ?v_30)) (and (and (<= o_12 1) (<= 0 o_12)) (and (= (> ?v_31 4096) (>= s_12 1)) (and (and (< ?v_32 4096) (<= 0 ?v_32)) (and (and (< s_12 2) (<= 0 s_12)) (and (= (> ?v_35 4096) (= o_11 1)) (and (and (< ?v_36 4096) (<= 0 ?v_36)) (and (and (<= o_11 1) (<= 0 o_11)) (and (= (> ?v_37 4096) (>= s_11 1)) (and (and (< ?v_38 4096) (<= 0 ?v_38)) (and (and (< s_11 2) (<= 0 s_11)) (and (= (> ?v_41 4096) (= o_10 1)) (and (and (< ?v_42 4096) (<= 0 ?v_42)) (and (and (<= o_10 1) (<= 0 o_10)) (and (= (> ?v_43 4096) (>= s_10 1)) (and (and (< ?v_44 4096) (<= 0 ?v_44)) (and (and (< s_10 2) (<= 0 s_10)) (and (= (> ?v_45 4096) (= o_9 1)) (and (and (< ?v_46 4096) (<= 0 ?v_46)) (and (and (<= o_9 1) (<= 0 o_9)) (and (= (> ?v_47 4096) (= o_8 1)) (and (and (< ?v_48 4096) (<= 0 ?v_48)) (and (and (<= o_8 1) (<= 0 o_8)) (and (= (> ?v_49 4096) (= o_7 1)) (and (and (< ?v_50 4096) (<= 0 ?v_50)) (and (and (<= o_7 1) (<= 0 o_7)) (and (= (> ?v_51 4096) (= o_6 1)) (and (and (< ?v_52 4096) (<= 0 ?v_52)) (and (and (<= o_6 1) (<= 0 o_6)) (and (= (> ?v_53 4096) (= o_5 1)) (and (and (< ?v_54 4096) (<= 0 ?v_54)) (and (and (<= o_5 1) (<= 0 o_5)) (and (= (> ?v_55 4096) (= o_4 1)) (and (and (< ?v_56 4096) (<= 0 ?v_56)) (and (and (<= o_4 1) (<= 0 o_4)) (and (= (> ?v_57 4096) (>= s_7 1)) (and (and (< ?v_58 4096) (<= 0 ?v_58)) (and (and (< s_7 256) (<= 0 s_7)) (and (= (> ?v_59 4096) (= o_3 1)) (and (and (< ?v_60 4096) (<= 0 ?v_60)) (and (and (<= o_3 1) (<= 0 o_3)) (and (= (> ?v_61 4096) (>= s_6 1)) (and (and (< ?v_62 4096) (<= 0 ?v_62)) (and (and (< s_6 128) (<= 0 s_6)) (and (= (> ?v_63 4096) (>= s_5 1)) (and (and (< ?v_64 4096) (<= 0 ?v_64)) (and (and (< s_5 64) (<= 0 s_5)) (and (= (> ?v_65 4096) (= o_2 1)) (and (and (< ?v_66 4096) (<= 0 ?v_66)) (and (and (<= o_2 1) (<= 0 o_2)) (and (= (> ?v_67 4096) (>= s_4 1)) (and (and (< ?v_68 4096) (<= 0 ?v_68)) (and (and (< s_4 32) (<= 0 s_4)) (and (= (> ?v_69 4096) (>= s_3 1)) (and (and (< ?v_70 4096) (<= 0 ?v_70)) (and (and (< s_3 16) (<= 0 s_3)) (and (= (> ?v_71 4096) (= o_1 1)) (and (and (< ?v_72 4096) (<= 0 ?v_72)) (and (and (<= o_1 1) (<= 0 o_1)) (and (= (> ?v_73 4096) (>= s_2 1)) (and (and (< ?v_74 4096) (<= 0 ?v_74)) (and (and (< s_2 8) (<= 0 s_2)) (and (= (> ?v_75 4096) (= o_0 1)) (and (and (< ?v_76 4096) (<= 0 ?v_76)) (and (and (<= o_0 1) (<= 0 o_0)) (and (and (< v8 4096) (>= v8 0)) (and (and (< v7 4096) (>= v7 0)) (and (and (< v6 4096) (>= v6 0)) (and (and (< v5 4096) (>= v5 0)) (and (and (< v4 4096) (>= v4 0)) (and (and (< v3 4096) (>= v3 0)) (and (and (< v2 4096) (>= v2 0)) (and (and (< v1 4096) (>= v1 0)) (and (< v0 4096) (>= v0 0))))))))))))))))))))))))))))))))))))))))))))))))))))))))))))))))))))))))))))))))))))))))))))))))))))))))))))))))))))))))))))))))))))))))))))))))))))))))))))
(check-sat)
(exit)
